7
2147483647 6 41 46 51 25 87 
6 2147483647 77 81 78 95 39 
41 77 2147483647 14 50 10 4 
46 81 14 2147483647 54 63 60 
51 78 50 54 2147483647 55 34 
25 95 10 63 55 2147483647 60 
87 39 4 60 34 60 2147483647 
